dates = {'2022-04-19','2022-04-20','2022-04-21','2022-04-22','2022-04-23','2022-04-24','2022-04-25'};

daysOfWeek = [Tuesday,Wednesday,Thursday,Friday,Saturday,Sunday,Monday];

% For this week, how many people will be here.
numPeople = [89,89,89,89,91,91,91];

% Physical workers need 50 to 100 % more nutrients per day.
numPhysicalWorkers = [21.0,21.0,21.0,21.0,21.5,21.5,21.5];

% Males need +25% more nutrients per day.
numMen = [75,75,75,75,76,76,76];

% Num people who do not eat categories. contains = {none, meat, milk, gluten, egg, nut, seed, sugars}
numRefusals = [| 0,2,0,0,0,7,0,6 | 0,2,0,0,0,7,0,6 | 0,2,0,0,0,7,0,6 | 0,2,0,0,0,7,0,6 | 0,3,0,7,0,1,1,0 | 0,3,0,7,0,1,1,0 | 0,3,0,7,0,1,1,0 |];

